500
1000
627
621
618
617
616
615
615
614
611
611
610
609
609
609
609
608
608
608
605
605
604
603
602
601
598
598
598
597
596
596
596
596
596
595
594
593
592
591
588
587
586
585
584
584
583
582
580
579
579
578
578
576
574
574
573
571
571
570
570
570
570
569
567
566
565
565
564
564
563
561
561
561
559
559
559
556
556
555
551
550
548
547
546
546
543
543
540
538
538
536
532
532
531
531
529
529
528
528
527
525
524
523
523
522
521
520
519
517
516
512
512
510
510
510
509
509
506
506
505
503
503
502
501
501
500
500
500
499
499
497
497
496
495
495
495
494
491
490
489
488
487
486
486
486
483
482
481
481
479
478
477
477
477
476
475
474
473
471
471
469
467
467
463
461
456
453
452
451
451
451
449
448
447
447
444
443
441
440
440
438
438
432
431
430
429
428
427
426
425
425
423
422
422
421
421
420
420
418
418
414
413
413
412
412
411
409
409
408
405
404
401
398
398
395
394
390
390
389
389
388
388
387
387
386
385
384
383
381
380
380
378
377
376
376
374
373
370
369
369
365
362
361
361
360
358
356
353
353
352
351
350
348
346
346
345
343
342
341
341
338
337
337
335
334
333
331
331
329
326
324
323
322
321
321
318
317
314
314
314
312
312
312
311
308
306
304
303
301
301
299
299
299
298
297
295
294
293
293
290
287
286
280
280
278
278
276
274
274
274
274
272
269
269
269
268
262
260
259
258
257
257
256
255
255
254
252
251
245
241
240
240
239
237
237
236
235
233
231
231
230
227
226
226
223
222
222
222
220
219
218
216
208
208
207
206
206
206
206
206
206
204
203
202
202
200
200
197
196
193
192
191
189
188
186
186
185
185
183
181
181
180
179
178
177
176
176
174
174
174
174
172
171
168
167
167
166
166
163
161
159
159
159
157
157
156
156
152
151
149
148
146
146
145
143
142
140
139
136
136
135
134
134
130
128
128
127
126
126
125
124
123
121
120
118
114
113
113
112
111
111
110
109
109
108
108
108
107
106
105
105
103
103
103
101
101
98
97
96
93
90
90
89
85
84
81
80
76
75
75
75
75
74
74
70
68
66
64
63
62
62
61
60
57
55
55
55
52
51
51
47
42
41
40
40
39
38
38
37
37
36
